10 5 17
777 335 649 27 763 
92.6 54 42.6 17.2 73.6 21.1 36.8 56.7 42.9 78.2 53 86.2 12.3 6.7 13.5 92.9 80.2 
10 16 4 9 2 13 2 4 0 5 
87926.9 112188 53526.9 46649.5 63207.9 
43011.6 62133.2 3667.42 9808.16 49580 
74022.3 103934 43301.8 40165.9 66992.8 
5032.89 50981.6 42843.2 55700 90108.9 
70502.5 70491.8 33051 20087.8 20671.2 
52046.1 73411.8 14115.6 10630.1 48718.2 
80775.9 80257.4 42473.6 29063 16709.3 
57314.7 8989.44 68561 73982.8 85636 
23972.7 77216.2 54833.6 68187.8 107162 
8720.67 62411.9 44051.1 57482.6 94772.4 
